182
Route #1: 1 76 
Route #2: 2 67 79 
Route #3: 3 30 46 
Route #4: 4 77 
Route #5: 5 58 137 
Route #6: 6 91 
Route #7: 7 56 
Route #8: 8 68 109 
Route #9: 9 51 114 
Route #10: 10 54 
Route #11: 11 
Route #12: 12 28 100 
Route #13: 13 41 
Route #14: 14 45 
Route #15: 15 93 143 
Route #16: 16 39 84 105 
Route #17: 17 95 
Route #18: 18 57 
Route #19: 19 55 99 
Route #20: 20 52 
Route #21: 21 90 
Route #22: 22 43 121 
Route #23: 23 63 124 
Route #24: 24 47 87 
Route #25: 25 33 80 119 155 
Route #26: 26 72 94 
Route #27: 27 69 
Route #28: 29 48 110 
Route #29: 31 81 123 152 
Route #30: 32 78 117 
Route #31: 34 104 153 
Route #32: 35 62 103 167 
Route #33: 36 70 96 
Route #34: 37 116 
Route #35: 38 125 
Route #36: 40 131 147 
Route #37: 42 60 
Route #38: 44 130 
Route #39: 49 132 
Route #40: 50 
Route #41: 53 89 
Route #42: 59 102 173 
Route #43: 61 144 
Route #44: 64 122 
Route #45: 65 101 133 174 
Route #46: 66 126 187 
Route #47: 71 88 118 
Route #48: 73 120 
Route #49: 74 135 166 
Route #50: 75 108 148 
Route #51: 82 107 
Route #52: 83 
Route #53: 85 
Route #54: 86 
Route #55: 92 136 192 
Route #56: 97 
Route #57: 98 156 175 216 
Route #58: 106 140 170 
Route #59: 111 165 228 
Route #60: 112 134 189 211 
Route #61: 113 139 207 
Route #62: 115 186 
Route #63: 127 162 191 
Route #64: 128 202 
Route #65: 129 161 227 261 
Route #66: 138 190 282 
Route #67: 141 178 233 
Route #68: 142 222 
Route #69: 145 196 226 276 
Route #70: 146 199 
Route #71: 149 193 
Route #72: 150 206 
Route #73: 151 160 239 
Route #74: 154 224 
Route #75: 157 172 244 
Route #76: 158 235 
Route #77: 159 243 288 
Route #78: 163 242 280 
Route #79: 164 215 241 290 
Route #80: 168 232 249 274 
Route #81: 169 263 306 
Route #82: 171 205 295 
Route #83: 176 240 
Route #84: 177 204 245 
Route #85: 179 248 
Route #86: 180 200 
Route #87: 181 271 
Route #88: 182 268 
Route #89: 183 264 
Route #90: 184 213 292 
Route #91: 185 256 
Route #92: 188 225 
Route #93: 194 258 329 
Route #94: 195 255 
Route #95: 197 218 275 
Route #96: 198 250 281 309 
Route #97: 201 266 300 
Route #98: 203 277 320 
Route #99: 208 265 326 
Route #100: 209 247 318 
Route #101: 210 284 296 317 
Route #102: 212 297 
Route #103: 214 267 346 
Route #104: 217 293 333 
Route #105: 219 294 
Route #106: 220 257 299 
Route #107: 221 279 325 363 
Route #108: 223 
Route #109: 229 273 304 
Route #110: 230 
Route #111: 231 311 332 
Route #112: 234 302 
Route #113: 236 260 291 370 
Route #114: 237 254 
Route #115: 238 283 334 
Route #116: 246 301 339 
Route #117: 251 330 
Route #118: 252 316 
Route #119: 253 308 366 
Route #120: 259 343 391 
Route #121: 262 
Route #122: 269 324 360 
Route #123: 270 351 
Route #124: 272 342 386 
Route #125: 278 352 
Route #126: 285 341 375 
Route #127: 286 
Route #128: 287 312 384 
Route #129: 289 350 
Route #130: 298 349 369 404 
Route #131: 303 344 372 421 
Route #132: 305 331 357 380 424 
Route #133: 307 392 
Route #134: 310 406 
Route #135: 313 382 418 
Route #136: 314 367 429 
Route #137: 315 368 398 444 
Route #138: 319 356 439 
Route #139: 321 413 
Route #140: 322 401 
Route #141: 323 362 381 446 
Route #142: 327 394 417 
Route #143: 328 399 426 
Route #144: 335 364 431 
Route #145: 336 379 420 
Route #146: 337 409 
Route #147: 338 414 
Route #148: 340 410 
Route #149: 345 407 440 
Route #150: 347 428 
Route #151: 348 397 
Route #152: 353 416 
Route #153: 354 436 
Route #154: 355 441 
Route #155: 358 434 
Route #156: 359 425 
Route #157: 361 383 412 
Route #158: 365 437 
Route #159: 371 388 
Route #160: 373 
Route #161: 374 449 
Route #162: 376 419 443 
Route #163: 377 400 415 
Route #164: 378 445 
Route #165: 385 
Route #166: 387 408 427 
Route #167: 389 
Route #168: 390 
Route #169: 393 432 
Route #170: 395 450 
Route #171: 396 
Route #172: 402 447 
Route #173: 403 430 
Route #174: 405 
Route #175: 411 
Route #176: 422 
Route #177: 423 
Route #178: 433 
Route #179: 435 
Route #180: 438 
Route #181: 442 
Route #182: 448 
Cost 318909.0
